
Gurobi 11.0.3 (linux64) logging started Fri Nov 22 21:17:46 2024

Set parameter LogFile to value "/home/yihong/Coding/OR_SUC/SUC_results_bigM100000_thread4/case24_ieee_rts_theta0.1_epsilon0.025_gurobi_seed700000_num_gen100_N_WDR100_load_scaling_factor1_exact_T12quadra_cost.txt"
Set parameter TimeLimit to value 3600
Gurobi Optimizer version 11.0.3 build v11.0.3rc0 (linux64 - "Ubuntu 20.04.6 LTS")

CPU model: AMD EPYC 7532 32-Core Processor, instruction set [SSE2|AVX|AVX2]
Thread count: 64 physical cores, 128 logical processors, using up to 4 threads

Optimize a model with 25823 rows, 15081 columns and 355770 nonzeros
Model fingerprint: 0xbd280ba5
Model has 1200 quadratic constraints
Variable types: 13781 continuous, 1300 integer (1300 binary)
Coefficient statistics:
  Matrix range     [3e-04, 1e+05]
  QMatrix range    [2e-03, 8e-03]
  QLMatrix range   [2e-01, 6e+01]
  Objective range  [1e+00, 1e+00]
  Bounds range     [1e+00, 1e+00]
  RHS range        [1e+00, 1e+05]
Presolve removed 21053 rows and 6683 columns
Presolve time: 0.10s
Presolved: 4770 rows, 8398 columns, 28474 nonzeros
Presolved model has 1200 quadratic constraint(s)
Variable types: 7161 continuous, 1237 integer (1237 binary)

Root relaxation: objective 1.850052e+04, 3951 iterations, 0.07 seconds (0.09 work units)

    Nodes    |    Current Node    |     Objective Bounds      |     Work
 Expl Unexpl |  Obj  Depth IntInf | Incumbent    BestBd   Gap | It/Node Time

     0     0 18500.5171    0   15          - 18500.5171      -     -    0s
     0     0 109664.300    0  472          - 109664.300      -     -    0s
     0     0 110023.048    0  472          - 110023.048      -     -    0s
     0     0 251999.763    0  380          - 251999.763      -     -    0s
     0     0 252140.228    0  238          - 252140.228      -     -    0s
     0     0 252488.051    0  187          - 252488.051      -     -    0s
     0     0 252697.425    0  186          - 252697.425      -     -    0s
     0     0 252748.161    0  186          - 252748.161      -     -    0s
     0     2 252748.161    0  186          - 252748.161      -     -    1s
H  344   260                    256584.46969 252929.443  1.42%  15.2    1s
*  344   260             103    256584.46969 252929.443  1.42%  15.2    1s
H  476   255                    253572.03463 252929.443  0.25%  13.3    2s
*  476   255             114    253572.03463 252929.443  0.25%  13.3    2s
   570   175 253207.866   23  193 253572.035 253049.470  0.21%  14.3    5s
H  608   194                    253320.47875 253054.145  0.11%  27.4    6s
H  814   249                    253312.27378 253054.255  0.10%  34.9    7s
*  814   249              44    253312.27378 253054.255  0.10%  35.2    7s
H  876   289                    253162.57828 253057.879  0.04%  34.0    8s
*  876   289              68    253162.57828 253057.879  0.04%  34.1    8s

Cutting planes:
  Gomory: 8
  Implied bound: 31
  MIR: 38
  Flow cover: 11
  RLT: 9

Explored 964 nodes (43913 simplex iterations) in 8.41 seconds (7.61 work units)
Thread count was 4 (of 128 available processors)

Solution count 6: 253163 253163 253312 ... 256584

Optimal solution found (tolerance 1.00e-03)
Warning: max constraint violation (1.1987e-09) exceeds tolerance
Best objective 2.531625705520e+05, best bound 2.530578788728e+05, gap 0.0414%
